
  32    4
  10   10   10   10

   0   0   0   0   0  15 2 3 4 6 9 10 11 24 25 26 27 28 29 30 31 
   2   1   1   1   0   5 23 22 21 20 8 
   4   0   4   6   1   4 19 16 13 5 
   1   7   0   3   4   2 15 7 
   8   4   4   0   5   2 17 14 
   7   2   6   5   0   2 18 14 
   1   5   4   4   0   1 12 
  10   0   3   5   4   1 13 
   1   3   2   6   0   1 16 
   7   6   5   0   4   1 15 
   3   0   3   2   4   1 12 
  10   0   4   4   3   1 32
   5   5   5   0   6   1 32
   5   7   3   5   0   1 32
   9   0   6   4   4   1 32
   7   4   0   6   5   1 32
   6   3   0   2   4   1 32
   1   2   3   0   4   1 32
   1   2   0   1   7   1 32
  10   2   5   0   3   1 32
   4   0   1   5   4   1 32
   9   0   5   4   6   1 32
   1   2   3   5   0   1 32
  10   6   0   4   4   1 32
   2   0   4   3   3   1 32
   2   5   4   0   2   1 32
   2   4   1   0   2   1 32
   9   3   0   5   7   1 32
  10   6   6   6   0   1 32
   4   0   8   3   2   1 32
   3   5   6   3   0   1 32
   0   0   0   0   0   0 
